50
    1    95    85
    2   104    94
    3    36    26
    4    16     6
    5    58    48
    6    26    16
    7    31    21
    8   102    92
    9    32    22
   10    59    49
   11   105    95
   12    47    37
   13    53    43
   14    67    57
   15    55    45
   16    25    15
   17    65    55
   18    56    46
   19    62    52
   20    32    22
   21    19     9
   22   101    91
   23    11     1
   24    69    59
   25    32    22
   26    77    67
   27   104    94
   28   108    98
   29    48    38
   30    17     7
   31    84    74
   32    54    44
   33    25    15
   34    44    34
   35    92    82
   36    76    66
   37    77    67
   38   104    94
   39    94    84
   40   103    93
   41   109    99
   42    43    33
   43    43    33
   44    41    31
   45    92    82
   46    38    28
   47    82    72
   48   110   100
   49    84    74
   50    27    17
439
